data;


param d:= 100;
param r:=5;
param p:=0.900000;
param M:=1000;
param U:=
         1         1       -1.411794e-01
         2         1       -9.451189e-01
         3         1        1.306979e-01
         4         1        5.693395e-01
         5         1       -7.935381e-01
         6         1       -7.624636e-01
         7         1       -1.012066e+00
         8         1       -5.122692e-01
         9         1       -4.530589e-01
        10         1       -6.501283e-01
        11         1       -8.103775e-01
        12         1        6.378000e-01
        13         1       -4.202960e-01
        14         1       -8.473636e-01
        15         1       -9.045560e-01
        16         1       -6.151363e-01
        17         1        9.608115e-01
        18         1        1.429093e+00
        19         1       -1.003177e+00
        20         1        1.586948e+00
        21         1       -5.190993e-01
        22         1       -1.574029e-01
        23         1       -1.489494e-01
        24         1       -1.333193e+00
        25         1        2.805724e-02
        26         1        4.729870e-01
        27         1       -1.238520e-01
        28         1       -6.468084e-02
        29         1       -8.361413e-02
        30         1        3.023782e-03
        31         1       -1.585983e+00
        32         1        6.574704e-01
        33         1        1.433089e+00
        34         1       -1.338226e+00
        35         1        8.088898e-02
        36         1        6.912822e-01
        37         1       -1.503488e+00
        38         1        4.994453e-01
        39         1        2.143190e-01
        40         1        1.662805e+00
        41         1       -1.088794e+00
        42         1       -1.881115e+00
        43         1       -1.285629e+00
        44         1       -5.495169e-01
        45         1       -2.293449e+00
        46         1        1.460109e-02
        47         1       -8.428373e-01
        48         1        1.795596e+00
        49         1        1.640213e-01
        50         1        1.968516e-01
        51         1        1.354935e+00
        52         1       -3.818872e-01
        53         1       -1.892875e-01
        54         1        2.544122e-01
        55         1       -1.915023e+00
        56         1        2.190572e-01
        57         1        4.150602e-02
        58         1        2.002575e+00
        59         1        1.207562e+00
        60         1       -3.243871e-01
        61         1       -1.081637e+00
        62         1       -1.319296e+00
        63         1        1.633587e+00
        64         1        2.318043e-01
        65         1        2.369540e-01
        66         1        3.923655e-01
        67         1       -1.459999e+00
        68         1       -9.873922e-01
        69         1        5.021152e-01
        70         1        1.610754e-01
        71         1        1.326063e+00
        72         1        2.305791e-01
        73         1        1.156569e+00
        74         1        1.615920e+00
        75         1        9.009175e-01
        76         1        1.106566e+00
        77         1       -1.081264e+00
        78         1        2.813677e-01
        79         1        1.374147e+00
        80         1        1.009494e+00
        81         1       -3.247344e-01
        82         1       -4.330941e-01
        83         1       -7.070074e-01
        84         1        5.120461e-01
        85         1       -1.196481e+00
        86         1        1.423736e+00
        87         1        5.717312e-01
        88         1        1.237006e+00
        89         1       -1.246683e+00
        90         1       -1.149522e+00
        91         1       -1.643080e-01
        92         1        1.097825e-01
        93         1       -7.014010e-01
        94         1        9.309686e-01
        95         1       -1.475278e+00
        96         1        3.935144e-01
        97         1        1.323636e-01
        98         1        4.096177e-01
        99         1        9.674732e-01
       100         1        1.844880e-01
         1         2       -2.503610e+00
         2         2       -7.507796e-02
         3         2        1.405619e+00
         4         2        1.410101e+00
         5         2        1.553052e+00
         6         2        6.089632e-01
         7         2        1.760537e+00
         8         2       -7.333150e-01
         9         2        5.137811e-01
        10         2        6.078234e-01
        11         2       -3.997088e-01
        12         2       -8.498007e-01
        13         2        1.038473e+00
        14         2       -8.699718e-01
        15         2       -1.338578e-01
        16         2        9.637318e-01
        17         2        4.774570e-01
        18         2        2.015095e-01
        19         2       -1.602796e-01
        20         2       -1.048657e+00
        21         2        1.929097e+00
        22         2       -2.093186e+00
        23         2       -7.972306e-01
        24         2       -2.047944e-01
        25         2       -5.153433e-03
        26         2       -2.403622e-01
        27         2        6.151332e-01
        28         2        9.439831e-01
        29         2       -3.450229e-01
        30         2        1.427874e-01
        31         2        9.885987e-01
        32         2       -1.443244e-01
        33         2       -5.360336e-01
        34         2       -3.881296e-01
        35         2       -1.433107e+00
        36         2        1.062315e+00
        37         2       -6.713267e-01
        38         2        7.625980e-01
        39         2        9.956734e-01
        40         2        1.367522e+00
        41         2       -1.357488e+00
        42         2        6.975578e-01
        43         2       -4.357343e-01
        44         2       -1.224142e-01
        45         2       -3.683629e-01
        46         2        8.053811e-02
        47         2       -3.509869e-01
        48         2        1.083347e+00
        49         2       -8.660866e-01
        50         2       -1.070095e+00
        51         2        1.316242e-01
        52         2       -2.030050e-01
        53         2        1.025451e+00
        54         2        7.606249e-01
        55         2       -1.129378e+00
        56         2        1.534672e+00
        57         2       -1.169032e+00
        58         2        2.881573e-01
        59         2        1.688934e+00
        60         2        1.282543e+00
        61         2       -5.342664e-01
        62         2        1.274379e+00
        63         2        3.179130e-01
        64         2        1.090239e+00
        65         2        3.709631e-01
        66         2        9.845101e-01
        67         2       -1.019864e-01
        68         2        1.599430e+00
        69         2        2.910434e+00
        70         2        5.593989e-01
        71         2        2.995379e-01
        72         2        7.627447e-01
        73         2        2.835841e+00
        74         2       -1.191021e+00
        75         2        6.624372e-01
        76         2        3.116106e-01
        77         2       -7.730428e-02
        78         2       -1.551545e+00
        79         2        2.663695e-01
        80         2        1.109520e+00
        81         2        3.207903e-01
        82         2       -1.349557e-02
        83         2        1.474939e+00
        84         2        2.706372e-01
        85         2        6.935648e-02
        86         2        1.778194e+00
        87         2        7.370941e-01
        88         2       -1.001349e+00
        89         2       -1.251752e+00
        90         2       -1.102337e+00
        91         2       -1.480254e+00
        92         2        3.572176e-01
        93         2        1.734972e+00
        94         2        9.045813e-02
        95         2       -5.778829e-01
        96         2       -1.257796e+00
        97         2        3.210027e-01
        98         2        8.177164e-01
        99         2        9.254865e-01
       100         2       -5.584942e-01
         1         3        6.458499e-01
         2         3        9.166539e-01
         3         3       -1.095801e-01
         4         3       -5.023908e-01
         5         3        1.357282e+00
         6         3       -1.839237e-01
         7         3        6.378880e-01
         8         3       -2.472832e-02
         9         3        8.458310e-01
        10         3        2.410513e+00
        11         3        8.348488e-01
        12         3        2.009312e+00
        13         3        6.447272e-01
        14         3       -7.240507e-01
        15         3        6.642482e-01
        16         3       -5.809795e-01
        17         3       -2.458719e-01
        18         3       -1.181209e+00
        19         3       -7.590502e-01
        20         3       -1.218923e+00
        21         3        9.504136e-01
        22         3        1.871599e-01
        23         3        9.249964e-01
        24         3        1.187117e+00
        25         3        1.024944e+00
        26         3       -4.777804e-01
        27         3        1.244611e+00
        28         3        1.292569e-01
        29         3       -1.114520e-02
        30         3        1.036650e+00
        31         3        1.241414e-01
        32         3        2.675630e+00
        33         3       -6.985034e-01
        34         3       -5.338723e-01
        35         3       -6.278684e-01
        36         3       -8.481403e-01
        37         3        8.604939e-01
        38         3        1.444407e-01
        39         3        1.490971e+00
        40         3       -6.398245e-02
        41         3        1.306689e+00
        42         3        3.840669e-01
        43         3        1.217366e+00
        44         3        1.514453e+00
        45         3       -1.849146e+00
        46         3       -1.980500e+00
        47         3        8.562021e-01
        48         3       -9.491779e-01
        49         3       -2.181114e-01
        50         3       -6.154087e-01
        51         3        6.203863e-02
        52         3        1.660583e+00
        53         3        5.940800e-01
        54         3        1.668501e+00
        55         3       -7.466157e-01
        56         3        1.144202e+00
        57         3        9.064752e-01
        58         3       -1.029635e+00
        59         3        8.713575e-01
        60         3        4.529530e-01
        61         3        6.008130e-01
        62         3       -5.713806e-01
        63         3       -3.240462e-01
        64         3        4.973562e-02
        65         3       -1.140191e+00
        66         3       -1.227700e+00
        67         3        5.310993e-01
        68         3        6.398116e-01
        69         3       -1.150305e-01
        70         3        3.599656e-01
        71         3       -8.607403e-01
        72         3        8.722873e-01
        73         3        1.516432e+00
        74         3        5.307053e-01
        75         3       -1.584030e+00
        76         3       -3.886568e-02
        77         3       -3.952793e-01
        78         3        3.520364e-01
        79         3       -6.720808e-01
        80         3       -4.824972e-01
        81         3       -6.908461e-01
        82         3       -1.130976e-01
        83         3        9.959874e-01
        84         3        1.524646e+00
        85         3       -6.219687e-01
        86         3       -1.020775e+00
        87         3       -2.654674e+00
        88         3       -4.345172e-02
        89         3        2.650338e-01
        90         3        7.501922e-01
        91         3        9.355956e-01
        92         3        6.547620e-01
        93         3        6.089757e-01
        94         3       -8.971136e-01
        95         3       -1.427070e+00
        96         3        9.935729e-02
        97         3       -2.062359e-01
        98         3       -1.668006e+00
        99         3       -6.257012e-01
       100         3       -1.140964e+00
         1         4       -1.015053e-01
         2         4        1.484104e+00
         3         4       -1.474217e+00
         4         4        3.455493e-01
         5         4       -3.137651e-01
         6         4       -4.136979e-01
         7         4       -6.274953e-03
         8         4       -1.361664e+00
         9         4        1.476403e+00
        10         4        1.693588e+00
        11         4       -2.343346e-01
        12         4        1.073003e+00
        13         4        8.157236e-01
        14         4       -1.452390e+00
        15         4       -1.278878e-01
        16         4       -5.771810e-01
        17         4        1.488542e+00
        18         4        6.427419e-01
        19         4       -4.299830e-01
        20         4        1.302440e+00
        21         4       -3.602133e-01
        22         4        4.540898e-01
        23         4       -2.572162e-01
        24         4       -7.440589e-01
        25         4       -1.030035e+00
        26         4       -1.434862e+00
        27         4        1.820608e+00
        28         4        1.298305e+00
        29         4        7.994890e-02
        30         4        9.687507e-01
        31         4       -1.078410e+00
        32         4        2.821700e-01
        33         4       -1.039612e+00
        34         4       -1.129259e+00
        35         4       -3.235654e-01
        36         4        7.735038e-01
        37         4        4.425906e-01
        38         4       -4.083051e-01
        39         4        7.373878e-01
        40         4        3.391513e-01
        41         4       -7.418779e-01
        42         4        1.694243e+00
        43         4       -1.090681e+00
        44         4        1.031819e-01
        45         4       -1.434910e-01
        46         4       -9.850006e-01
        47         4        4.411070e-01
        48         4       -3.637947e-01
        49         4       -6.143871e-01
        50         4        1.938918e+00
        51         4        7.286270e-01
        52         4       -2.348834e-01
        53         4        6.348629e-01
        54         4        7.767135e-01
        55         4       -1.513328e+00
        56         4       -8.050599e-01
        57         4       -1.445094e+00
        58         4       -1.175020e+00
        59         4       -1.839036e+00
        60         4       -3.894407e-01
        61         4       -1.260731e+00
        62         4       -9.270278e-01
        63         4       -1.466034e+00
        64         4        2.145737e-01
        65         4       -3.533067e-01
        66         4       -7.843532e-01
        67         4        9.499689e-02
        68         4       -2.889994e-01
        69         4       -9.789261e-01
        70         4       -1.009283e+00
        71         4       -1.463910e+00
        72         4       -1.098284e+00
        73         4       -5.490177e-01
        74         4        5.550354e-01
        75         4        7.418937e-01
        76         4        9.470626e-01
        77         4        1.045776e-01
        78         4        1.024411e+00
        79         4        1.240919e+00
        80         4        5.673821e-01
        81         4        2.159262e+00
        82         4        6.763785e-01
        83         4        1.630361e+00
        84         4        2.945629e-02
        85         4       -3.831637e-01
        86         4       -7.650797e-01
        87         4        1.194332e-01
        88         4        1.198418e+00
        89         4        5.047994e-01
        90         4       -3.653499e+00
        91         4        9.702850e-01
        92         4        9.031363e-01
        93         4        2.570315e-01
        94         4       -2.872256e-01
        95         4        4.296981e-01
        96         4        1.605135e-01
        97         4        1.846731e+00
        98         4        4.732971e-01
        99         4       -8.696914e-01
       100         4       -6.857399e-01
         1         5       -1.143553e+00
         2         5       -1.264158e+00
         3         5       -1.021154e+00
         4         5       -4.547483e-01
         5         5        6.217760e-01
         6         5       -3.417261e-02
         7         5       -1.402035e+00
         8         5        3.425309e-01
         9         5       -6.196390e-01
        10         5       -3.243088e-01
        11         5        6.146690e-01
        12         5        1.121894e+00
        13         5       -9.258459e-01
        14         5       -1.035565e+00
        15         5       -7.154725e-01
        16         5        1.894358e-01
        17         5       -1.473811e+00
        18         5       -1.059513e+00
        19         5        1.217180e+00
        20         5       -1.302757e-01
        21         5       -9.758505e-01
        22         5       -8.437826e-01
        23         5        1.282060e+00
        24         5        9.757547e-01
        25         5        1.666688e+00
        26         5       -8.271245e-01
        27         5       -1.033665e+00
        28         5       -1.582798e+00
        29         5        1.285667e+00
        30         5        2.685936e-01
        31         5        2.080429e-01
        32         5        7.017292e-01
        33         5        1.636223e+00
        34         5       -4.451942e-01
        35         5       -8.207211e-01
        36         5        9.567610e-01
        37         5       -2.860806e+00
        38         5        8.716242e-01
        39         5       -7.983244e-01
        40         5        1.132703e-01
        41         5        5.771220e-01
        42         5        1.618484e+00
        43         5       -8.511079e-01
        44         5       -2.454335e-01
        45         5        1.232712e+00
        46         5       -6.620760e-01
        47         5       -1.207199e+00
        48         5        4.932709e-01
        49         5        2.737294e-01
        50         5       -2.139074e-01
        51         5        6.198372e-01
        52         5       -3.938004e-01
        53         5        2.675693e-02
        54         5        1.085618e+00
        55         5        1.443979e-01
        56         5        6.818457e-02
        57         5       -1.000737e+00
        58         5       -6.665550e-01
        59         5       -8.330288e-01
        60         5        1.258159e+00
        61         5        7.529501e-01
        62         5        4.189568e-01
        63         5       -1.015230e-01
        64         5       -1.058225e+00
        65         5       -4.840443e-02
        66         5        1.572616e-02
        67         5       -4.989217e-01
        68         5       -9.140820e-01
        69         5       -2.060524e+00
        70         5        2.898425e-01
        71         5       -9.920222e-01
        72         5        8.897204e-01
        73         5       -1.201253e+00
        74         5        6.631608e-01
        75         5       -2.985088e-01
        76         5        1.029462e+00
        77         5       -3.875444e-01
        78         5       -1.940891e+00
        79         5       -6.076850e-01
        80         5       -8.553986e-01
        81         5        1.120865e+00
        82         5       -9.641518e-01
        83         5       -3.071892e-02
        84         5        3.119785e-03
        85         5       -1.479039e+00
        86         5       -8.189608e-01
        87         5       -4.697231e-01
        88         5        4.337135e-01
        89         5       -1.446730e+00
        90         5       -8.278775e-02
        91         5        2.268668e-01
        92         5        1.467532e-01
        93         5        1.097727e+00
        94         5       -7.832812e-01
        95         5       -1.190794e+00
        96         5        2.592557e-01
        97         5       -1.105534e-02
        98         5        4.759562e-01
        99         5       -6.893729e-03
       100         5       -2.163307e-01
;

param theta:=
    1        4.710732e-01
    2        2.476480e-01
    3       -3.413989e-01
    4        1.214047e-01
    5       -8.639429e-01
;
param X_true:=
    1        6.862940e-02
    2        4.955794e-01
    3        1.150320e+00
    4        1.223753e+00
    5       -1.027850e+00
    6       -1.662780e-01
    7        9.519779e-01
    8       -8.757176e-01
    9        3.396221e-01
   10       -4.928844e-01
   11       -1.325239e+00
   12       -1.434963e+00
   13        7.379872e-01
   14        3.509148e-01
   15       -8.343412e-02
   16       -8.649638e-02
   17        2.108799e+00
   18        2.119765e+00
   19       -1.356900e+00
   20        1.174682e+00
   21        7.080806e-01
   22        1.276908e-01
   23       -1.722245e+00
   24       -2.017357e+00
   25       -1.902948e+00
   26        8.667894e-01
   27        7.831423e-01
   28        1.684245e+00
   29       -1.222064e+00
   30       -4.315643e-01
   31       -8.553325e-01
   32       -1.211479e+00
   33       -7.590067e-01
   34       -2.967332e-01
   35        5.673261e-01
   36        1.455989e-01
   37        1.357029e+00
   38       -4.277844e-01
   39        6.177496e-01
   40        1.087126e+00
   41       -1.883851e+00
   42       -2.037103e+00
   43       -5.262463e-01
   44       -5.816437e-01
   45       -1.622723e+00
   46        1.155376e+00
   47        3.202375e-01
   48        9.678696e-01
   49       -3.738317e-01
   50        4.580218e-01
   51        2.026447e-01
   52       -4.853868e-01
   53        1.592329e-02
   54       -1.105025e+00
   55       -1.235387e+00
   56       -6.402431e-02
   57        1.097128e-01
   58        1.799450e+00
   59        1.186053e+00
   60       -1.124086e+00
   61       -1.650522e+00
   62       -5.853191e-01
   63        8.686253e-01
   64        1.302509e+00
   65        5.916766e-01
   66        7.389695e-01
   67       -4.517669e-01
   68        4.671595e-01
   69        2.657897e+00
   70       -2.814186e-01
   71        1.672033e+00
   72       -9.022905e-01
   73        1.700572e+00
   74       -2.204687e-01
   75        1.477199e+00
   76       -1.627066e-01
   77       -4.603824e-02
   78        1.429310e+00
   79        1.618396e+00
   80        1.722938e+00
   81       -5.438956e-01
   82        7.463379e-01
   83       -8.334271e-02
   84       -2.113977e-01
   85        8.971728e-01
   86        2.074192e+00
   87        1.778483e+00
   88        1.203625e-01
   89        3.234219e-01
   90       -1.442643e+00
   91       -8.415972e-01
   92       -1.004967e-01
   93       -1.025821e+00
   94        1.409069e+00
   95        7.300707e-01
   96       -3.645321e-01
   97        4.460103e-01
   98        6.111828e-01
   99        7.989305e-01
  100        4.417665e-01
;
param X:=
    1        5.590734e-01
    2       -8.779803e-01
    3        1.045660e+00
    4        3.106406e-01
    5       -4.197383e-01
    6       -6.049919e-01
    7       -1.327194e+00
    8       -1.167278e+00
    9       -1.253495e+00
   10        5.283443e-01
   11       -3.354662e-01
   12       -1.434963e+00
   13        1.076708e+00
   14        4.448672e-01
   15       -8.343412e-02
   16       -1.961160e+00
   17       -2.970051e-01
   18        5.074893e-01
   19       -1.398944e-01
   20       -9.807763e-03
   21        9.670045e-01
   22        1.810589e+00
   23        7.403458e-01
   24        4.400107e-01
   25        3.116471e-01
   26       -2.987550e-01
   27       -1.191131e+00
   28       -6.826615e-01
   29       -1.222064e+00
   30       -4.315643e-01
   31        6.361307e-01
   32       -1.888174e+00
   33       -1.263570e+00
   34       -6.949202e-01
   35       -1.930794e+00
   36        1.455989e-01
   37       -1.131590e-01
   38       -1.552161e+00
   39       -1.152357e+00
   40        2.495265e+00
   41        4.063848e-01
   42       -2.561549e-01
   43       -5.262463e-01
   44       -5.816437e-01
   45        3.636378e-02
   46        7.310903e-02
   47       -1.796006e+00
   48        3.443071e-01
   49        3.324128e-01
   50       -7.043685e-01
   51        2.026447e-01
   52        9.004164e-01
   53       -8.312002e-01
   54        1.286577e+00
   55       -3.523465e-01
   56        8.121753e-01
   57        1.097128e-01
   58        3.635664e-01
   59        2.460429e-01
   60        4.081315e-01
   61        1.000476e+00
   62        3.275870e-01
   63       -2.888224e-01
   64        1.302509e+00
   65        4.042194e-01
   66        4.576973e-01
   67        2.168094e+00
   68        1.182203e+00
   69        1.297161e+00
   70       -8.325128e-01
   71        1.115991e+00
   72       -5.574221e-01
   73        3.283771e-01
   74        1.295932e+00
   75       -8.332438e-01
   76       -4.320968e-01
   77        1.045234e+00
   78       -9.249867e-02
   79        1.186731e+00
   80        3.481119e-01
   81       -5.556860e-01
   82       -8.474218e-01
   83        8.017724e-01
   84       -2.362265e-01
   85       -1.281172e+00
   86        4.174034e-01
   87        4.766199e-01
   88        3.384923e-01
   89        5.680912e-01
   90       -1.538122e+00
   91        1.434851e+00
   92        2.731937e-01
   93       -1.168183e+00
   94        9.499918e-01
   95       -4.616558e-01
   96       -1.162538e+00
   97        5.386764e-01
   98        1.011622e+00
   99       -6.581644e-01
  100        8.313757e-01
;
param outliervec:=
    1    1
    2    1
    3    1
    4    1
    5    1
    6    1
    7    1
    8    1
    9    1
   10    1
   11    1
   12    0
   13    1
   14    1
   15    0
   16    1
   17    1
   18    1
   19    1
   20    1
   21    1
   22    1
   23    1
   24    1
   25    1
   26    1
   27    1
   28    1
   29    0
   30    0
   31    1
   32    1
   33    1
   34    1
   35    1
   36    0
   37    1
   38    1
   39    1
   40    1
   41    1
   42    1
   43    0
   44    0
   45    1
   46    1
   47    1
   48    1
   49    1
   50    1
   51    0
   52    1
   53    1
   54    1
   55    1
   56    1
   57    0
   58    1
   59    1
   60    1
   61    1
   62    1
   63    1
   64    0
   65    1
   66    1
   67    1
   68    1
   69    1
   70    1
   71    1
   72    1
   73    1
   74    1
   75    1
   76    1
   77    1
   78    1
   79    1
   80    1
   81    1
   82    1
   83    1
   84    1
   85    1
   86    1
   87    1
   88    1
   89    1
   90    1
   91    1
   92    1
   93    1
   94    1
   95    1
   96    1
   97    1
   98    1
   99    1
  100    1
;